param n := 60;
param c := 10000
param : V : p w :=
   0	  82	 378
   1	  92	 275
   2	  63	 347
   3	  21	 462
   4	  54	 261
   5	   5	 277
   6	  94	 429
   7	  36	 273
   8	   3	 298
   9	  66	 495
  10	  41	 250
  11	  53	 255
  12	  46	 371
  13	  67	 262
  14	  36	 367
  15	  27	 391
  16	  98	 293
  17	  95	 316
  18	  11	 493
  19	  29	 252
  20	  41	 255
  21	  26	 405
  22	  96	 250
  23	  59	 345
  24	  96	 461
  25	  87	 258
  26	  83	 281
  27	  13	 478
  28	  63	 257
  29	  74	 265
  30	  31	 354
  31	   3	 278
  32	  46	 368
  33	  18	 451
  34	  30	 256
  35	  35	 293
  36	  56	 485
  37	  16	 254
  38	  26	 261
  39	  91	 477
  40	  49	 258
  41	  65	 265
  42	  92	 369
  43	  52	 270
  44	  59	 361
  45	  60	 375
  46	  11	 268
  47	  37	 357
  48	  34	 414
  49	  99	 254
  50	  37	 332
  51	  21	 459
  52	  58	 263
  53	  60	 278
  54	  99	 456
  55	   5	 263
  56	  10	 281
  57	  40	 426
  58	  91	 277
  59	  50	 297
;

set E :=
   0	   2
   0	   3
   0	   4
   0	   5
   0	   6
   0	  11
   0	  13
   0	  14
   0	  15
   0	  16
   0	  19
   0	  22
   0	  23
   0	  26
   0	  28
   0	  29
   0	  30
   0	  31
   0	  33
   0	  34
   0	  36
   0	  39
   0	  41
   0	  42
   0	  43
   0	  45
   0	  47
   0	  50
   0	  51
   0	  52
   0	  53
   0	  54
   0	  55
   0	  57
   1	   3
   1	   4
   1	   5
   1	   6
   1	   7
   1	   8
   1	  10
   1	  13
   1	  16
   1	  17
   1	  19
   1	  20
   1	  21
   1	  22
   1	  23
   1	  25
   1	  26
   1	  29
   1	  30
   1	  31
   1	  32
   1	  36
   1	  39
   1	  40
   1	  42
   1	  43
   1	  44
   1	  45
   1	  47
   1	  48
   1	  49
   1	  50
   1	  51
   1	  52
   1	  53
   1	  54
   1	  55
   1	  56
   1	  57
   1	  58
   1	  59
   2	   3
   2	   4
   2	   5
   2	   6
   2	   8
   2	  10
   2	  13
   2	  14
   2	  15
   2	  17
   2	  19
   2	  22
   2	  23
   2	  24
   2	  25
   2	  27
   2	  30
   2	  31
   2	  32
   2	  33
   2	  37
   2	  38
   2	  39
   2	  41
   2	  42
   2	  44
   2	  45
   2	  46
   2	  48
   2	  50
   2	  51
   2	  52
   2	  53
   2	  55
   2	  56
   2	  57
   2	  59
   3	   4
   3	   7
   3	   8
   3	   9
   3	  10
   3	  11
   3	  12
   3	  15
   3	  17
   3	  19
   3	  20
   3	  21
   3	  22
   3	  23
   3	  24
   3	  26
   3	  28
   3	  29
   3	  30
   3	  31
   3	  32
   3	  33
   3	  34
   3	  35
   3	  36
   3	  37
   3	  38
   3	  39
   3	  40
   3	  44
   3	  47
   3	  48
   3	  49
   3	  50
   3	  51
   3	  53
   3	  55
   3	  56
   3	  59
   4	   6
   4	   7
   4	   9
   4	  11
   4	  12
   4	  13
   4	  14
   4	  15
   4	  16
   4	  17
   4	  19
   4	  20
   4	  23
   4	  25
   4	  26
   4	  27
   4	  28
   4	  29
   4	  30
   4	  31
   4	  32
   4	  33
   4	  34
   4	  35
   4	  37
   4	  38
   4	  40
   4	  41
   4	  42
   4	  43
   4	  48
   4	  49
   4	  50
   4	  51
   4	  52
   4	  54
   4	  55
   4	  58
   4	  59
   5	   6
   5	   8
   5	  10
   5	  13
   5	  14
   5	  16
   5	  17
   5	  18
   5	  19
   5	  20
   5	  21
   5	  22
   5	  26
   5	  27
   5	  28
   5	  29
   5	  30
   5	  31
   5	  32
   5	  34
   5	  35
   5	  36
   5	  37
   5	  40
   5	  41
   5	  42
   5	  43
   5	  44
   5	  45
   5	  46
   5	  48
   5	  51
   5	  52
   5	  53
   5	  54
   5	  55
   5	  56
   5	  57
   6	   8
   6	   9
   6	  10
   6	  11
   6	  12
   6	  13
   6	  14
   6	  16
   6	  17
   6	  18
   6	  19
   6	  21
   6	  22
   6	  23
   6	  24
   6	  25
   6	  26
   6	  27
   6	  28
   6	  29
   6	  30
   6	  31
   6	  33
   6	  34
   6	  36
   6	  37
   6	  38
   6	  41
   6	  42
   6	  43
   6	  46
   6	  49
   6	  50
   6	  51
   6	  52
   6	  53
   6	  55
   6	  57
   6	  59
   7	  12
   7	  14
   7	  17
   7	  18
   7	  19
   7	  20
   7	  22
   7	  23
   7	  24
   7	  28
   7	  30
   7	  33
   7	  34
   7	  35
   7	  38
   7	  42
   7	  43
   7	  44
   7	  45
   7	  46
   7	  48
   7	  50
   7	  52
   7	  54
   7	  56
   8	   9
   8	  10
   8	  11
   8	  15
   8	  16
   8	  17
   8	  18
   8	  22
   8	  25
   8	  28
   8	  29
   8	  30
   8	  31
   8	  32
   8	  33
   8	  34
   8	  37
   8	  38
   8	  39
   8	  41
   8	  42
   8	  49
   8	  52
   8	  54
   8	  55
   8	  56
   8	  59
   9	  10
   9	  11
   9	  13
   9	  14
   9	  15
   9	  17
   9	  18
   9	  19
   9	  20
   9	  21
   9	  23
   9	  24
   9	  26
   9	  28
   9	  29
   9	  31
   9	  33
   9	  34
   9	  35
   9	  38
   9	  40
   9	  41
   9	  42
   9	  44
   9	  45
   9	  46
   9	  49
   9	  50
   9	  52
   9	  54
   9	  56
   9	  57
   9	  58
   9	  59
  10	  12
  10	  14
  10	  15
  10	  16
  10	  19
  10	  23
  10	  24
  10	  25
  10	  28
  10	  29
  10	  30
  10	  31
  10	  34
  10	  35
  10	  37
  10	  38
  10	  39
  10	  40
  10	  41
  10	  42
  10	  43
  10	  44
  10	  45
  10	  46
  10	  47
  10	  48
  10	  49
  10	  50
  10	  51
  10	  54
  10	  55
  10	  56
  10	  57
  10	  58
  11	  13
  11	  15
  11	  17
  11	  18
  11	  19
  11	  22
  11	  24
  11	  25
  11	  26
  11	  28
  11	  29
  11	  33
  11	  35
  11	  36
  11	  37
  11	  40
  11	  46
  11	  47
  11	  48
  11	  49
  11	  51
  11	  54
  11	  55
  11	  57
  11	  58
  12	  13
  12	  14
  12	  15
  12	  16
  12	  18
  12	  19
  12	  20
  12	  21
  12	  22
  12	  24
  12	  25
  12	  29
  12	  31
  12	  32
  12	  35
  12	  37
  12	  38
  12	  42
  12	  44
  12	  45
  12	  48
  12	  49
  12	  51
  12	  58
  12	  59
  13	  15
  13	  16
  13	  17
  13	  18
  13	  19
  13	  20
  13	  21
  13	  22
  13	  23
  13	  25
  13	  26
  13	  28
  13	  32
  13	  33
  13	  34
  13	  36
  13	  38
  13	  39
  13	  40
  13	  41
  13	  42
  13	  44
  13	  45
  13	  46
  13	  47
  13	  49
  13	  50
  13	  51
  13	  53
  13	  54
  13	  55
  13	  56
  13	  58
  14	  19
  14	  21
  14	  22
  14	  23
  14	  24
  14	  25
  14	  26
  14	  27
  14	  28
  14	  31
  14	  32
  14	  33
  14	  36
  14	  37
  14	  39
  14	  41
  14	  43
  14	  46
  14	  47
  14	  54
  14	  57
  14	  58
  14	  59
  15	  16
  15	  18
  15	  20
  15	  21
  15	  24
  15	  25
  15	  26
  15	  27
  15	  28
  15	  31
  15	  33
  15	  34
  15	  36
  15	  37
  15	  38
  15	  41
  15	  42
  15	  44
  15	  45
  15	  48
  15	  49
  15	  51
  15	  53
  15	  55
  15	  57
  16	  18
  16	  19
  16	  21
  16	  22
  16	  23
  16	  24
  16	  27
  16	  28
  16	  29
  16	  30
  16	  32
  16	  33
  16	  34
  16	  35
  16	  36
  16	  38
  16	  41
  16	  42
  16	  44
  16	  46
  16	  49
  16	  50
  16	  53
  16	  55
  16	  57
  16	  58
  17	  19
  17	  21
  17	  22
  17	  23
  17	  24
  17	  25
  17	  26
  17	  27
  17	  28
  17	  29
  17	  31
  17	  32
  17	  34
  17	  36
  17	  38
  17	  40
  17	  41
  17	  43
  17	  47
  17	  49
  17	  50
  17	  51
  17	  52
  17	  53
  17	  54
  17	  55
  17	  57
  17	  58
  17	  59
  18	  19
  18	  21
  18	  24
  18	  25
  18	  26
  18	  27
  18	  28
  18	  30
  18	  32
  18	  33
  18	  34
  18	  38
  18	  39
  18	  41
  18	  42
  18	  44
  18	  46
  18	  47
  18	  48
  18	  51
  18	  52
  18	  53
  18	  54
  18	  55
  18	  57
  18	  59
  19	  21
  19	  22
  19	  25
  19	  26
  19	  27
  19	  28
  19	  30
  19	  31
  19	  32
  19	  35
  19	  37
  19	  38
  19	  44
  19	  45
  19	  48
  19	  53
  19	  55
  19	  56
  19	  58
  20	  23
  20	  24
  20	  26
  20	  28
  20	  29
  20	  30
  20	  31
  20	  32
  20	  35
  20	  36
  20	  37
  20	  38
  20	  39
  20	  41
  20	  42
  20	  44
  20	  46
  20	  49
  20	  55
  20	  56
  21	  24
  21	  25
  21	  26
  21	  27
  21	  29
  21	  31
  21	  32
  21	  33
  21	  35
  21	  36
  21	  39
  21	  42
  21	  43
  21	  44
  21	  45
  21	  47
  21	  49
  21	  50
  21	  54
  21	  55
  21	  56
  21	  57
  21	  59
  22	  24
  22	  26
  22	  27
  22	  28
  22	  29
  22	  30
  22	  31
  22	  32
  22	  33
  22	  34
  22	  35
  22	  36
  22	  40
  22	  41
  22	  44
  22	  46
  22	  47
  22	  48
  22	  49
  22	  50
  22	  51
  22	  53
  22	  54
  22	  55
  22	  56
  22	  57
  22	  58
  23	  24
  23	  25
  23	  26
  23	  27
  23	  28
  23	  30
  23	  32
  23	  33
  23	  38
  23	  39
  23	  41
  23	  42
  23	  43
  23	  45
  23	  46
  23	  47
  23	  49
  23	  52
  23	  53
  23	  56
  23	  59
  24	  25
  24	  27
  24	  29
  24	  30
  24	  31
  24	  32
  24	  34
  24	  35
  24	  36
  24	  38
  24	  40
  24	  42
  24	  43
  24	  45
  24	  47
  24	  50
  24	  51
  24	  52
  24	  55
  24	  57
  24	  58
  24	  59
  25	  26
  25	  27
  25	  28
  25	  31
  25	  32
  25	  36
  25	  37
  25	  38
  25	  39
  25	  41
  25	  42
  25	  43
  25	  44
  25	  46
  25	  47
  25	  48
  25	  51
  25	  52
  25	  54
  25	  58
  25	  59
  26	  28
  26	  29
  26	  31
  26	  34
  26	  36
  26	  37
  26	  38
  26	  40
  26	  42
  26	  43
  26	  48
  26	  50
  26	  52
  26	  56
  26	  57
  26	  58
  26	  59
  27	  28
  27	  29
  27	  31
  27	  35
  27	  37
  27	  38
  27	  41
  27	  42
  27	  45
  27	  48
  27	  49
  27	  52
  27	  53
  27	  58
  28	  29
  28	  34
  28	  35
  28	  37
  28	  38
  28	  39
  28	  40
  28	  41
  28	  44
  28	  45
  28	  46
  28	  48
  28	  49
  28	  55
  28	  56
  28	  57
  28	  58
  28	  59
  29	  30
  29	  31
  29	  32
  29	  33
  29	  36
  29	  37
  29	  38
  29	  41
  29	  45
  29	  46
  29	  47
  29	  48
  29	  50
  29	  51
  29	  53
  29	  54
  29	  57
  29	  58
  30	  31
  30	  33
  30	  35
  30	  36
  30	  37
  30	  38
  30	  39
  30	  42
  30	  43
  30	  44
  30	  46
  30	  49
  30	  50
  30	  52
  30	  53
  30	  54
  30	  56
  30	  57
  30	  59
  31	  32
  31	  33
  31	  34
  31	  35
  31	  39
  31	  40
  31	  46
  31	  48
  31	  49
  31	  51
  31	  52
  31	  53
  31	  55
  31	  58
  32	  33
  32	  34
  32	  36
  32	  37
  32	  39
  32	  40
  32	  42
  32	  44
  32	  47
  32	  50
  32	  52
  32	  53
  32	  55
  32	  57
  32	  58
  32	  59
  33	  34
  33	  35
  33	  36
  33	  38
  33	  39
  33	  40
  33	  42
  33	  43
  33	  44
  33	  46
  33	  47
  33	  48
  33	  49
  33	  50
  33	  51
  33	  52
  33	  55
  33	  56
  33	  57
  33	  58
  33	  59
  34	  35
  34	  37
  34	  38
  34	  40
  34	  41
  34	  42
  34	  43
  34	  44
  34	  48
  34	  52
  34	  53
  34	  55
  34	  56
  35	  36
  35	  37
  35	  38
  35	  39
  35	  40
  35	  41
  35	  43
  35	  49
  35	  50
  35	  51
  35	  53
  35	  55
  35	  56
  35	  57
  35	  58
  35	  59
  36	  38
  36	  39
  36	  40
  36	  42
  36	  43
  36	  44
  36	  45
  36	  48
  36	  53
  36	  55
  36	  56
  36	  57
  36	  58
  36	  59
  37	  39
  37	  40
  37	  42
  37	  44
  37	  46
  37	  47
  37	  49
  37	  52
  37	  54
  37	  57
  37	  58
  37	  59
  38	  39
  38	  43
  38	  44
  38	  45
  38	  46
  38	  48
  38	  50
  38	  51
  38	  52
  38	  55
  38	  59
  39	  41
  39	  42
  39	  44
  39	  47
  39	  52
  39	  54
  39	  55
  39	  56
  39	  57
  39	  59
  40	  42
  40	  43
  40	  48
  40	  49
  40	  50
  40	  52
  40	  53
  40	  54
  40	  57
  40	  59
  41	  42
  41	  45
  41	  46
  41	  48
  41	  50
  41	  52
  41	  53
  41	  54
  41	  55
  41	  56
  41	  57
  41	  59
  42	  43
  42	  44
  42	  47
  42	  48
  42	  49
  42	  50
  42	  51
  42	  54
  42	  55
  42	  56
  42	  59
  43	  45
  43	  47
  43	  50
  43	  52
  43	  53
  43	  55
  43	  59
  44	  46
  44	  50
  44	  53
  44	  54
  44	  55
  44	  56
  44	  59
  45	  46
  45	  47
  45	  49
  45	  56
  45	  57
  45	  59
  46	  47
  46	  48
  46	  49
  46	  50
  46	  51
  46	  52
  46	  53
  46	  55
  46	  57
  46	  58
  46	  59
  47	  51
  47	  52
  47	  54
  47	  55
  47	  56
  48	  49
  48	  50
  48	  51
  48	  53
  48	  54
  48	  55
  48	  56
  48	  58
  48	  59
  49	  50
  49	  53
  49	  54
  49	  56
  49	  57
  49	  58
  49	  59
  50	  51
  50	  52
  50	  53
  50	  56
  50	  57
  50	  58
  50	  59
  51	  52
  51	  53
  51	  56
  51	  57
  51	  58
  52	  53
  52	  54
  52	  55
  52	  56
  52	  57
  52	  58
  52	  59
  53	  54
  53	  55
  53	  56
  53	  58
  54	  56
  54	  57
  54	  58
  55	  56
  55	  59
  56	  57
  56	  58
;
